webassembly/ejemplos_dzn/5/folder5_json_90.dzn
TERM = { '.', 's(2)', 'in_1', 'local_1', 'in_2', 's(1)', 's(0)', 's(3)', 'in_0'};
null = '.';
s = 5;
n = 8;
ndeps = 1;
max_registers_sz = 4;
NR = 1;
registers = [|'local_1', 's(3)'|];
dependencies = [|'call[function_index(0)]_1', 'i32.load_2'|];
GET_ENUM = { GET1, GET2, GET3, GET4, GET5};
SET_ENUM = { SET1, SET2, SET3, SET4, SET5};
TEE_ENUM = { TEE1, TEE2, TEE3, TEE4, TEE5};
N = 4;
OP = { 'i32.sub_0', 'i32.sub_1', 'call[function_index(0)]_1', 'i32.load_2' };
in_ops = [2, 2, 1, 1 ];
out_ops = [1, 1, 1, 1 ];
in1 = ['s(2)', 'in_0', 's(0)', 's(1)' ];
in2 = ['in_2', 'in_1', '.', '.' ];
in3 = ['.', '.', '.', '.' ];
out1 = ['s(3)', 's(0)', 's(1)', 's(2)' ];
out2 = ['.', '.', '.', '.' ];
out3 = ['.', '.', '.', '.' ];
comm = [false, false, false, false ];
gas = [1, 1, 1, 1 ];
sz = [1, 1, 1, 1 ];
stor = [false, false, true, false ];
lb = [ 1, 1, 1, 1 ];
ub = [ 5, 5, 5, 5 ];
startstack = [ 'in_0', 'in_1', 'in_2', null, null, null, null, null ];
endstack = [ 's(3)', null, null, null, null, null, null, null ];
