webassembly/ejemplos_results/5/folder5_json_90.txt
value = 5;
fgas = [1, 1, 1, 1, 1];
fsize = [1, 1, 1, 1, 1];
states = 
[|   in_0,   in_1, in_2, '.', '.', '.', '.', '.'
 | 's(0)',   in_2,  '.', '.', '.', '.', '.', '.'
 | 's(1)',   in_2,  '.', '.', '.', '.', '.', '.'
 | 's(2)',   in_2,  '.', '.', '.', '.', '.', '.'
 | 's(3)', 's(3)',  '.', '.', '.', '.', '.', '.'
 | 's(3)',    '.',  '.', '.', '.', '.', '.', '.'
 |];
register_states = 
[| local_1, '.', '.', '.', '.'
 | local_1, '.', '.', '.', '.'
 | local_1, '.', '.', '.', '.'
 | local_1, '.', '.', '.', '.'
 | local_1, '.', '.', '.', '.'
 |  's(3)', '.', '.', '.', '.'
 |];
program = [O('i32.sub_1'), O('call[function_index(0)]_1'), O('i32.load_2'), O('i32.sub_0'), S(SET1)];
% time elapsed: 0.07 s
----------
==========
% time elapsed: 0.07 s
% [value > 4]
